33D32945 STP File, STP Format Version 1.0

SECTION Comment
Name "i640-335-PCST"
Creator "Indaco Biazzo" 
Remark "derived from Incidence graph by Cees Duin"
END

SECTION Graph
Nodes 640
Edges 1280
E 1 73 310.000000
E 1 130 313.000000
E 1 231 199.000000
E 1 235 198.000000
E 1 338 190.000000
E 1 394 201.000000
E 1 487 195.000000
E 1 524 196.000000
E 1 559 202.000000
E 2 8 298.000000
E 2 134 298.000000
E 2 148 291.000000
E 2 465 204.000000
E 3 290 201.000000
E 3 332 198.000000
E 3 353 200.000000
E 3 430 201.000000
E 3 538 198.000000
E 3 554 203.000000
E 4 42 309.000000
E 4 105 297.000000
E 4 183 193.000000
E 4 377 198.000000
E 4 472 197.000000
E 4 628 206.000000
E 4 634 198.000000
E 5 143 303.000000
E 5 206 196.000000
E 6 380 202.000000
E 6 456 192.000000
E 6 477 206.000000
E 6 515 191.000000
E 6 592 197.000000
E 7 34 295.000000
E 7 86 304.000000
E 8 51 309.000000
E 8 198 208.000000
E 8 324 203.000000
E 8 437 203.000000
E 8 471 207.000000
E 8 507 201.000000
E 8 546 208.000000
E 8 553 192.000000
E 9 547 201.000000
E 10 297 205.000000
E 10 447 198.000000
E 10 498 200.000000
E 10 524 200.000000
E 11 20 303.000000
E 11 80 297.000000
E 11 133 308.000000
E 11 358 196.000000
E 11 562 194.000000
E 11 599 202.000000
E 12 28 300.000000
E 12 269 200.000000
E 12 469 196.000000
E 13 229 192.000000
E 13 440 196.000000
E 13 573 199.000000
E 13 586 200.000000
E 14 198 192.000000
E 14 208 195.000000
E 14 342 205.000000
E 14 343 194.000000
E 14 408 200.000000
E 14 426 199.000000
E 15 159 307.000000
E 15 246 211.000000
E 15 316 194.000000
E 16 378 202.000000
E 16 564 199.000000
E 17 86 296.000000
E 17 126 297.000000
E 17 230 202.000000
E 17 248 198.000000
E 17 291 192.000000
E 17 301 200.000000
E 17 367 198.000000
E 17 580 195.000000
E 18 25 303.000000
E 18 221 203.000000
E 18 524 201.000000
E 19 107 300.000000
E 19 119 304.000000
E 19 311 208.000000
E 19 319 198.000000
E 19 323 202.000000
E 19 523 198.000000
E 20 147 298.000000
E 20 354 199.000000
E 20 417 194.000000
E 21 209 197.000000
E 21 262 202.000000
E 21 548 199.000000
E 21 557 192.000000
E 21 619 207.000000
E 22 339 207.000000
E 22 589 206.000000
E 23 186 195.000000
E 23 409 199.000000
E 24 100 308.000000
E 24 165 195.000000
E 24 266 200.000000
E 24 398 194.000000
E 24 488 202.000000
E 24 573 214.000000
E 24 617 192.000000
E 25 185 198.000000
E 25 325 202.000000
E 25 435 198.000000
E 25 534 202.000000
E 25 542 199.000000
E 25 587 201.000000
E 25 616 194.000000
E 26 53 308.000000
E 26 56 301.000000
E 26 88 304.000000
E 26 188 197.000000
E 26 268 192.000000
E 26 270 196.000000
E 26 425 195.000000
E 26 484 202.000000
E 26 559 195.000000
E 27 70 294.000000
E 27 93 296.000000
E 27 292 205.000000
E 27 463 202.000000
E 27 553 197.000000
E 28 83 296.000000
E 28 109 300.000000
E 28 304 199.000000
E 29 407 195.000000
E 29 484 197.000000
E 30 133 300.000000
E 30 173 200.000000
E 30 606 201.000000
E 31 145 294.000000
E 31 215 208.000000
E 31 271 194.000000
E 31 316 201.000000
E 31 564 197.000000
E 32 86 295.000000
E 32 100 293.000000
E 32 126 292.000000
E 32 175 203.000000
E 32 229 200.000000
E 32 245 200.000000
E 32 250 191.000000
E 32 303 200.000000
E 32 305 208.000000
E 32 373 197.000000
E 32 583 198.000000
E 33 53 302.000000
E 33 261 195.000000
E 33 489 197.000000
E 34 520 200.000000
E 35 87 303.000000
E 35 159 293.000000
E 35 236 205.000000
E 36 92 301.000000
E 36 257 198.000000
E 37 609 200.000000
E 38 349 194.000000
E 38 467 197.000000
E 39 338 208.000000
E 39 438 200.000000
E 39 561 202.000000
E 39 638 199.000000
E 40 175 194.000000
E 40 358 210.000000
E 41 156 302.000000
E 41 169 198.000000
E 41 280 203.000000
E 41 315 205.000000
E 41 376 201.000000
E 41 475 196.000000
E 42 201 208.000000
E 42 203 195.000000
E 42 616 201.000000
E 43 192 195.000000
E 43 303 191.000000
E 43 306 201.000000
E 43 516 204.000000
E 44 381 209.000000
E 44 428 194.000000
E 45 248 195.000000
E 45 296 195.000000
E 46 94 300.000000
E 46 518 200.000000
E 46 636 205.000000
E 47 203 198.000000
E 47 230 204.000000
E 47 363 208.000000
E 47 413 188.000000
E 47 425 199.000000
E 47 502 203.000000
E 47 590 206.000000
E 47 631 205.000000
E 48 120 296.000000
E 48 468 207.000000
E 48 604 196.000000
E 49 215 189.000000
E 49 255 203.000000
E 49 342 201.000000
E 49 444 198.000000
E 50 336 202.000000
E 50 477 196.000000
E 51 59 296.000000
E 51 284 194.000000
E 51 601 201.000000
E 51 639 196.000000
E 52 273 203.000000
E 52 422 201.000000
E 52 527 205.000000
E 53 85 301.000000
E 53 161 206.000000
E 53 256 202.000000
E 53 341 194.000000
E 53 618 198.000000
E 53 634 200.000000
E 54 147 300.000000
E 54 176 201.000000
E 54 190 201.000000
E 54 469 201.000000
E 54 518 200.000000
E 54 576 205.000000
E 55 180 199.000000
E 55 506 204.000000
E 56 60 295.000000
E 56 220 197.000000
E 56 513 196.000000
E 56 620 201.000000
E 57 107 301.000000
E 57 427 200.000000
E 58 131 293.000000
E 58 145 306.000000
E 58 189 205.000000
E 58 259 198.000000
E 58 453 205.000000
E 58 565 201.000000
E 58 632 195.000000
E 59 119 303.000000
E 59 280 196.000000
E 59 290 201.000000
E 59 511 193.000000
E 60 601 197.000000
E 61 155 300.000000
E 61 460 199.000000
E 62 606 196.000000
E 63 152 304.000000
E 63 444 198.000000
E 64 100 296.000000
E 64 146 306.000000
E 64 195 196.000000
E 64 426 204.000000
E 64 451 198.000000
E 64 543 201.000000
E 65 262 211.000000
E 65 333 203.000000
E 65 424 196.000000
E 65 425 208.000000
E 65 622 202.000000
E 66 97 290.000000
E 66 262 205.000000
E 66 392 201.000000
E 67 86 297.000000
E 67 199 198.000000
E 67 484 203.000000
E 67 606 201.000000
E 67 616 197.000000
E 68 178 198.000000
E 68 312 196.000000
E 68 481 198.000000
E 68 548 209.000000
E 69 94 291.000000
E 69 354 194.000000
E 69 446 201.000000
E 70 236 196.000000
E 70 590 204.000000
E 70 630 199.000000
E 71 226 195.000000
E 71 302 197.000000
E 72 370 205.000000
E 72 389 204.000000
E 72 608 207.000000
E 73 232 188.000000
E 73 242 202.000000
E 73 249 192.000000
E 73 473 207.000000
E 73 589 192.000000
E 74 587 203.000000
E 74 638 202.000000
E 75 517 206.000000
E 75 543 199.000000
E 76 103 305.000000
E 76 106 300.000000
E 76 272 191.000000
E 76 529 206.000000
E 76 546 198.000000
E 77 79 301.000000
E 77 268 204.000000
E 77 289 200.000000
E 78 321 200.000000
E 78 527 200.000000
E 78 559 200.000000
E 79 121 313.000000
E 79 132 300.000000
E 79 230 198.000000
E 79 313 201.000000
E 79 521 201.000000
E 81 387 199.000000
E 81 455 200.000000
E 81 599 193.000000
E 82 89 299.000000
E 82 210 196.000000
E 82 223 200.000000
E 82 226 202.000000
E 82 476 200.000000
E 82 494 200.000000
E 82 559 192.000000
E 82 614 191.000000
E 83 167 202.000000
E 83 300 211.000000
E 83 485 187.000000
E 83 531 197.000000
E 84 234 201.000000
E 84 278 195.000000
E 84 417 198.000000
E 84 507 199.000000
E 85 317 190.000000
E 85 325 204.000000
E 86 208 201.000000
E 86 258 201.000000
E 87 235 207.000000
E 87 261 203.000000
E 87 415 192.000000
E 87 433 196.000000
E 87 520 193.000000
E 87 600 201.000000
E 87 604 194.000000
E 88 374 205.000000
E 88 568 197.000000
E 90 350 197.000000
E 90 363 202.000000
E 90 374 203.000000
E 90 584 192.000000
E 91 231 195.000000
E 91 245 190.000000
E 91 302 201.000000
E 91 445 204.000000
E 91 555 200.000000
E 91 640 200.000000
E 92 181 205.000000
E 92 195 207.000000
E 92 285 210.000000
E 92 320 200.000000
E 92 322 200.000000
E 92 485 191.000000
E 93 110 303.000000
E 93 334 208.000000
E 93 373 200.000000
E 93 386 202.000000
E 94 400 194.000000
E 95 241 195.000000
E 95 334 191.000000
E 95 521 193.000000
E 95 605 196.000000
E 95 638 193.000000
E 96 363 200.000000
E 96 613 201.000000
E 97 144 294.000000
E 97 171 191.000000
E 97 376 194.000000
E 97 379 205.000000
E 97 388 205.000000
E 97 487 203.000000
E 97 563 197.000000
E 98 519 197.000000
E 99 232 191.000000
E 99 511 197.000000
E 100 129 293.000000
E 100 179 196.000000
E 100 180 187.000000
E 100 358 200.000000
E 100 389 197.000000
E 100 408 201.000000
E 101 197 190.000000
E 101 259 199.000000
E 102 112 300.000000
E 102 383 198.000000
E 102 399 202.000000
E 102 435 207.000000
E 102 521 203.000000
E 102 527 207.000000
E 103 306 208.000000
E 103 309 205.000000
E 103 387 204.000000
E 103 398 200.000000
E 104 117 298.000000
E 104 424 190.000000
E 104 614 201.000000
E 105 382 202.000000
E 106 228 201.000000
E 106 594 205.000000
E 107 211 205.000000
E 108 291 190.000000
E 108 389 206.000000
E 108 392 206.000000
E 108 427 201.000000
E 108 454 202.000000
E 109 299 194.000000
E 109 317 198.000000
E 109 457 199.000000
E 109 470 200.000000
E 110 143 294.000000
E 111 146 298.000000
E 111 359 193.000000
E 111 367 197.000000
E 111 443 194.000000
E 111 468 200.000000
E 112 120 290.000000
E 112 261 197.000000
E 112 294 193.000000
E 112 397 204.000000
E 113 194 198.000000
E 113 196 190.000000
E 113 370 202.000000
E 113 418 201.000000
E 113 448 203.000000
E 113 494 202.000000
E 113 564 199.000000
E 114 410 192.000000
E 114 550 201.000000
E 114 588 201.000000
E 114 598 206.000000
E 115 458 198.000000
E 115 539 208.000000
E 116 342 196.000000
E 116 509 200.000000
E 117 229 199.000000
E 117 234 204.000000
E 117 294 204.000000
E 117 498 200.000000
E 118 462 193.000000
E 118 530 197.000000
E 120 195 192.000000
E 120 583 197.000000
E 121 217 191.000000
E 121 335 192.000000
E 121 465 204.000000
E 122 142 293.000000
E 122 254 203.000000
E 122 321 199.000000
E 122 331 200.000000
E 122 360 201.000000
E 122 503 202.000000
E 123 141 304.000000
E 124 453 201.000000
E 124 503 198.000000
E 125 276 201.000000
E 125 506 190.000000
E 126 143 307.000000
E 126 237 190.000000
E 126 295 204.000000
E 126 383 199.000000
E 126 556 182.000000
E 126 570 199.000000
E 126 636 190.000000
E 127 138 305.000000
E 127 159 302.000000
E 127 326 200.000000
E 128 232 203.000000
E 128 378 207.000000
E 128 436 203.000000
E 128 465 201.000000
E 128 474 190.000000
E 128 480 198.000000
E 128 559 198.000000
E 129 153 300.000000
E 129 331 204.000000
E 129 364 198.000000
E 130 324 186.000000
E 130 571 207.000000
E 131 209 197.000000
E 131 342 202.000000
E 132 187 202.000000
E 132 254 201.000000
E 132 494 204.000000
E 132 518 194.000000
E 133 332 197.000000
E 133 525 210.000000
E 133 639 195.000000
E 134 174 194.000000
E 134 225 211.000000
E 134 242 199.000000
E 134 260 197.000000
E 134 511 198.000000
E 134 613 200.000000
E 135 287 197.000000
E 135 338 200.000000
E 135 348 197.000000
E 135 371 201.000000
E 135 391 207.000000
E 135 405 194.000000
E 135 450 205.000000
E 136 271 198.000000
E 136 362 198.000000
E 137 155 294.000000
E 137 338 188.000000
E 137 619 199.000000
E 138 212 210.000000
E 138 277 200.000000
E 138 288 198.000000
E 139 208 200.000000
E 139 610 201.000000
E 140 302 201.000000
E 140 326 197.000000
E 140 451 208.000000
E 141 174 203.000000
E 141 500 203.000000
E 141 520 199.000000
E 142 489 200.000000
E 142 599 198.000000
E 142 602 196.000000
E 142 613 192.000000
E 143 160 301.000000
E 143 343 199.000000
E 143 431 204.000000
E 144 318 209.000000
E 144 453 197.000000
E 144 592 209.000000
E 144 638 207.000000
E 145 329 193.000000
E 145 366 201.000000
E 146 619 198.000000
E 147 498 199.000000
E 147 503 210.000000
E 148 156 304.000000
E 148 222 205.000000
E 149 205 206.000000
E 149 305 201.000000
E 149 351 198.000000
E 149 383 203.000000
E 149 632 197.000000
E 150 151 307.000000
E 150 175 192.000000
E 150 467 194.000000
E 150 499 192.000000
E 151 354 197.000000
E 152 536 204.000000
E 152 565 199.000000
E 153 226 206.000000
E 153 431 200.000000
E 153 465 205.000000
E 154 265 199.000000
E 154 305 189.000000
E 154 379 194.000000
E 154 464 198.000000
E 154 483 202.000000
E 155 394 203.000000
E 156 421 195.000000
E 156 492 200.000000
E 156 555 200.000000
E 157 226 198.000000
E 157 373 205.000000
E 157 481 208.000000
E 158 402 201.000000
E 159 200 200.000000
E 159 408 196.000000
E 159 413 201.000000
E 159 495 195.000000
E 160 177 203.000000
E 160 565 195.000000
E 161 192 93.000000
E 161 233 94.000000
E 162 200 106.000000
E 162 602 104.000000
E 163 294 100.000000
E 163 333 99.000000
E 163 608 103.000000
E 164 275 101.000000
E 164 331 98.000000
E 164 539 102.000000
E 165 540 101.000000
E 166 324 97.000000
E 166 403 90.000000
E 166 409 101.000000
E 166 620 99.000000
E 167 235 105.000000
E 167 520 96.000000
E 168 246 94.000000
E 168 274 103.000000
E 168 408 103.000000
E 168 474 109.000000
E 168 545 107.000000
E 169 177 105.000000
E 169 498 108.000000
E 170 230 101.000000
E 170 325 101.000000
E 170 329 96.000000
E 170 431 102.000000
E 170 526 102.000000
E 172 259 100.000000
E 172 378 93.000000
E 173 220 103.000000
E 174 259 88.000000
E 174 313 88.000000
E 174 394 103.000000
E 174 542 111.000000
E 174 552 106.000000
E 174 602 101.000000
E 175 286 101.000000
E 176 286 96.000000
E 176 499 102.000000
E 177 521 103.000000
E 178 306 108.000000
E 179 219 99.000000
E 180 226 99.000000
E 180 248 107.000000
E 180 269 104.000000
E 180 459 103.000000
E 180 460 96.000000
E 180 499 98.000000
E 180 532 96.000000
E 180 620 102.000000
E 181 234 99.000000
E 181 450 100.000000
E 181 554 101.000000
E 181 584 101.000000
E 181 624 95.000000
E 182 364 98.000000
E 182 419 104.000000
E 182 524 101.000000
E 183 349 106.000000
E 183 451 99.000000
E 183 490 100.000000
E 183 533 107.000000
E 184 192 105.000000
E 184 257 106.000000
E 184 296 95.000000
E 184 453 92.000000
E 184 508 91.000000
E 184 584 101.000000
E 186 252 102.000000
E 186 613 101.000000
E 187 191 101.000000
E 187 419 103.000000
E 187 584 105.000000
E 188 473 105.000000
E 190 418 100.000000
E 190 525 105.000000
E 191 268 108.000000
E 191 491 103.000000
E 193 200 104.000000
E 193 628 99.000000
E 194 309 102.000000
E 194 590 105.000000
E 195 468 95.000000
E 195 475 97.000000
E 196 303 99.000000
E 196 640 102.000000
E 197 244 109.000000
E 197 253 89.000000
E 197 524 106.000000
E 198 258 102.000000
E 198 300 98.000000
E 198 382 91.000000
E 198 482 93.000000
E 198 510 96.000000
E 199 310 97.000000
E 199 437 95.000000
E 200 544 103.000000
E 201 293 99.000000
E 201 298 101.000000
E 201 300 97.000000
E 201 636 97.000000
E 202 269 102.000000
E 203 235 102.000000
E 203 264 102.000000
E 203 438 93.000000
E 203 475 99.000000
E 204 562 100.000000
E 204 576 104.000000
E 205 278 95.000000
E 205 367 104.000000
E 205 446 90.000000
E 205 523 95.000000
E 206 433 99.000000
E 207 622 96.000000
E 208 263 94.000000
E 208 417 103.000000
E 209 230 102.000000
E 210 229 99.000000
E 210 323 95.000000
E 210 335 92.000000
E 210 338 97.000000
E 211 613 109.000000
E 211 621 96.000000
E 211 625 108.000000
E 212 236 99.000000
E 212 602 97.000000
E 213 284 100.000000
E 213 312 105.000000
E 213 461 103.000000
E 214 351 97.000000
E 214 354 100.000000
E 214 468 97.000000
E 214 596 102.000000
E 215 325 105.000000
E 216 315 101.000000
E 216 339 102.000000
E 217 614 99.000000
E 218 349 108.000000
E 218 386 95.000000
E 218 400 106.000000
E 218 564 98.000000
E 219 392 100.000000
E 219 622 100.000000
E 220 283 100.000000
E 220 474 100.000000
E 220 621 100.000000
E 221 256 98.000000
E 221 341 101.000000
E 221 387 102.000000
E 222 556 104.000000
E 222 609 101.000000
E 223 407 95.000000
E 223 487 102.000000
E 223 511 98.000000
E 224 229 100.000000
E 224 550 98.000000
E 224 563 96.000000
E 224 579 99.000000
E 224 613 103.000000
E 225 232 107.000000
E 225 240 95.000000
E 226 293 96.000000
E 226 592 98.000000
E 226 596 98.000000
E 227 232 99.000000
E 227 332 111.000000
E 227 501 95.000000
E 228 283 100.000000
E 228 335 94.000000
E 229 439 98.000000
E 229 617 93.000000
E 229 629 97.000000
E 230 602 100.000000
E 231 280 99.000000
E 231 401 102.000000
E 231 478 102.000000
E 231 484 90.000000
E 231 600 92.000000
E 231 623 96.000000
E 233 260 90.000000
E 233 423 96.000000
E 233 533 104.000000
E 234 630 101.000000
E 235 395 100.000000
E 235 639 104.000000
E 236 338 85.000000
E 236 476 103.000000
E 237 382 98.000000
E 237 483 103.000000
E 237 524 102.000000
E 238 259 93.000000
E 238 553 106.000000
E 239 505 100.000000
E 239 508 100.000000
E 240 399 95.000000
E 240 406 102.000000
E 240 451 97.000000
E 240 497 100.000000
E 240 560 100.000000
E 241 395 101.000000
E 242 620 89.000000
E 243 252 93.000000
E 243 611 96.000000
E 244 254 89.000000
E 244 381 100.000000
E 244 565 97.000000
E 245 281 98.000000
E 247 358 96.000000
E 247 387 98.000000
E 248 328 95.000000
E 248 358 105.000000
E 248 607 103.000000
E 249 532 109.000000
E 250 464 97.000000
E 250 577 91.000000
E 251 266 93.000000
E 251 273 105.000000
E 251 324 98.000000
E 251 369 102.000000
E 251 591 95.000000
E 252 309 101.000000
E 252 581 98.000000
E 253 619 93.000000
E 254 404 103.000000
E 254 430 94.000000
E 254 593 95.000000
E 255 338 107.000000
E 255 469 97.000000
E 255 482 106.000000
E 257 328 99.000000
E 257 467 102.000000
E 258 423 101.000000
E 258 440 92.000000
E 259 474 98.000000
E 259 583 102.000000
E 260 573 105.000000
E 261 454 99.000000
E 261 574 89.000000
E 262 343 105.000000
E 262 393 104.000000
E 262 492 101.000000
E 263 587 97.000000
E 264 472 106.000000
E 264 613 104.000000
E 265 295 98.000000
E 265 463 107.000000
E 265 580 94.000000
E 265 639 98.000000
E 266 419 102.000000
E 266 569 107.000000
E 267 470 96.000000
E 267 499 102.000000
E 267 576 97.000000
E 268 375 107.000000
E 268 381 96.000000
E 268 602 96.000000
E 269 427 97.000000
E 270 632 95.000000
E 272 371 98.000000
E 272 389 107.000000
E 273 290 103.000000
E 273 335 94.000000
E 273 504 100.000000
E 273 537 102.000000
E 273 594 102.000000
E 273 602 108.000000
E 274 371 101.000000
E 274 456 98.000000
E 274 549 102.000000
E 275 559 102.000000
E 276 351 107.000000
E 276 404 94.000000
E 276 607 101.000000
E 278 286 96.000000
E 278 435 96.000000
E 278 483 98.000000
E 279 400 104.000000
E 279 412 97.000000
E 279 629 97.000000
E 280 311 103.000000
E 280 313 101.000000
E 280 547 99.000000
E 280 553 96.000000
E 280 590 103.000000
E 281 475 107.000000
E 282 340 96.000000
E 282 413 95.000000
E 282 424 103.000000
E 282 478 96.000000
E 282 538 98.000000
E 283 349 99.000000
E 283 414 98.000000
E 284 618 96.000000
E 285 460 105.000000
E 285 635 104.000000
E 286 478 108.000000
E 287 292 99.000000
E 287 309 96.000000
E 288 492 93.000000
E 289 315 114.000000
E 290 563 97.000000
E 290 575 103.000000
E 291 362 95.000000
E 292 307 101.000000
E 292 324 101.000000
E 292 442 97.000000
E 292 489 105.000000
E 294 471 107.000000
E 295 323 100.000000
E 295 629 102.000000
E 296 444 100.000000
E 296 477 97.000000
E 296 566 98.000000
E 296 573 103.000000
E 297 310 98.000000
E 297 403 94.000000
E 297 474 104.000000
E 297 630 96.000000
E 298 332 97.000000
E 299 395 95.000000
E 299 404 102.000000
E 300 560 92.000000
E 301 594 87.000000
E 303 304 96.000000
E 303 358 98.000000
E 303 368 99.000000
E 304 377 93.000000
E 304 404 95.000000
E 304 615 107.000000
E 305 573 93.000000
E 306 334 108.000000
E 307 471 106.000000
E 307 500 94.000000
E 307 607 93.000000
E 307 631 92.000000
E 308 405 106.000000
E 308 460 105.000000
E 309 354 95.000000
E 309 388 99.000000
E 309 545 96.000000
E 309 627 98.000000
E 310 526 97.000000
E 312 315 97.000000
E 312 322 103.000000
E 312 377 108.000000
E 312 481 98.000000
E 312 618 100.000000
E 313 484 102.000000
E 313 530 97.000000
E 314 409 104.000000
E 314 571 98.000000
E 315 346 97.000000
E 317 415 102.000000
E 317 473 97.000000
E 317 595 90.000000
E 318 418 96.000000
E 318 436 97.000000
E 318 452 102.000000
E 319 415 97.000000
E 320 390 91.000000
E 320 497 99.000000
E 322 430 92.000000
E 322 509 93.000000
E 322 561 100.000000
E 322 580 99.000000
E 322 588 106.000000
E 323 345 97.000000
E 323 504 98.000000
E 325 342 96.000000
E 325 628 105.000000
E 326 532 96.000000
E 326 639 98.000000
E 327 535 108.000000
E 328 366 95.000000
E 328 478 99.000000
E 328 515 106.000000
E 329 331 91.000000
E 329 520 100.000000
E 330 462 97.000000
E 330 580 108.000000
E 330 582 100.000000
E 331 626 91.000000
E 332 424 94.000000
E 332 512 101.000000
E 333 411 103.000000
E 333 609 103.000000
E 334 435 99.000000
E 335 361 99.000000
E 335 370 95.000000
E 335 444 98.000000
E 335 446 104.000000
E 335 516 102.000000
E 335 600 103.000000
E 336 600 108.000000
E 337 403 98.000000
E 338 389 103.000000
E 338 483 84.000000
E 338 521 104.000000
E 338 621 100.000000
E 339 343 102.000000
E 339 515 102.000000
E 339 594 105.000000
E 339 625 100.000000
E 341 516 93.000000
E 341 597 99.000000
E 342 351 100.000000
E 342 366 100.000000
E 344 386 86.000000
E 344 502 92.000000
E 344 624 104.000000
E 346 425 109.000000
E 346 572 102.000000
E 346 629 104.000000
E 347 543 101.000000
E 348 510 88.000000
E 348 537 109.000000
E 348 550 95.000000
E 349 464 101.000000
E 349 518 98.000000
E 350 389 102.000000
E 350 420 99.000000
E 351 504 102.000000
E 352 521 99.000000
E 353 587 100.000000
E 354 356 88.000000
E 354 527 104.000000
E 354 620 103.000000
E 355 377 92.000000
E 355 474 96.000000
E 355 532 98.000000
E 356 402 102.000000
E 356 550 99.000000
E 356 616 108.000000
E 357 479 99.000000
E 357 539 93.000000
E 358 408 98.000000
E 358 530 96.000000
E 358 539 98.000000
E 359 472 90.000000
E 359 539 97.000000
E 360 459 96.000000
E 360 493 92.000000
E 360 502 104.000000
E 360 606 99.000000
E 360 626 97.000000
E 361 508 95.000000
E 361 598 100.000000
E 362 369 98.000000
E 362 433 101.000000
E 362 513 104.000000
E 362 532 104.000000
E 363 443 95.000000
E 364 627 97.000000
E 365 386 104.000000
E 365 388 93.000000
E 365 438 107.000000
E 365 597 101.000000
E 365 604 96.000000
E 365 638 93.000000
E 366 617 102.000000
E 369 443 103.000000
E 369 460 95.000000
E 369 520 101.000000
E 371 545 99.000000
E 371 590 102.000000
E 372 460 89.000000
E 372 471 94.000000
E 373 403 96.000000
E 373 430 106.000000
E 373 501 99.000000
E 373 602 107.000000
E 374 444 97.000000
E 374 598 90.000000
E 376 571 110.000000
E 377 428 98.000000
E 377 570 97.000000
E 377 605 98.000000
E 378 447 103.000000
E 378 454 94.000000
E 378 629 102.000000
E 379 459 94.000000
E 379 499 94.000000
E 380 455 103.000000
E 382 391 94.000000
E 382 544 91.000000
E 384 443 96.000000
E 385 407 93.000000
E 386 455 104.000000
E 386 465 102.000000
E 386 477 94.000000
E 386 521 93.000000
E 389 479 113.000000
E 389 536 102.000000
E 389 554 97.000000
E 389 638 107.000000
E 390 453 106.000000
E 390 569 104.000000
E 392 402 104.000000
E 394 488 104.000000
E 395 454 100.000000
E 396 428 93.000000
E 396 435 96.000000
E 397 410 91.000000
E 398 485 98.000000
E 399 407 101.000000
E 401 425 103.000000
E 401 619 98.000000
E 402 532 100.000000
E 403 434 103.000000
E 403 593 110.000000
E 403 613 96.000000
E 404 608 102.000000
E 405 540 103.000000
E 405 639 101.000000
E 406 506 100.000000
E 406 551 100.000000
E 407 573 109.000000
E 408 441 94.000000
E 408 533 94.000000
E 409 578 102.000000
E 409 620 102.000000
E 410 425 106.000000
E 411 416 98.000000
E 412 435 101.000000
E 412 456 94.000000
E 413 541 103.000000
E 414 466 101.000000
E 414 508 96.000000
E 416 493 102.000000
E 416 558 108.000000
E 417 462 100.000000
E 417 503 100.000000
E 418 432 103.000000
E 418 459 100.000000
E 418 614 101.000000
E 419 441 99.000000
E 419 482 96.000000
E 419 603 105.000000
E 420 432 99.000000
E 420 466 107.000000
E 421 466 94.000000
E 421 530 101.000000
E 421 555 102.000000
E 421 592 92.000000
E 422 611 93.000000
E 423 485 93.000000
E 423 624 108.000000
E 424 488 102.000000
E 424 527 99.000000
E 425 504 95.000000
E 425 533 92.000000
E 427 485 94.000000
E 428 447 101.000000
E 429 595 101.000000
E 429 606 98.000000
E 430 441 96.000000
E 431 507 107.000000
E 431 538 99.000000
E 431 601 91.000000
E 432 567 99.000000
E 434 535 101.000000
E 435 576 97.000000
E 435 603 109.000000
E 435 605 105.000000
E 436 507 97.000000
E 436 560 95.000000
E 437 486 106.000000
E 438 517 106.000000
E 439 618 93.000000
E 440 478 103.000000
E 441 455 104.000000
E 441 579 104.000000
E 442 486 100.000000
E 442 514 100.000000
E 443 498 107.000000
E 443 598 91.000000
E 445 457 96.000000
E 445 474 100.000000
E 445 553 93.000000
E 448 594 98.000000
E 448 638 100.000000
E 449 471 95.000000
E 449 627 99.000000
E 450 495 95.000000
E 450 505 116.000000
E 450 637 108.000000
E 452 469 100.000000
E 452 592 100.000000
E 454 496 109.000000
E 455 597 94.000000
E 456 537 91.000000
E 457 495 84.000000
E 457 547 98.000000
E 457 554 87.000000
E 457 593 100.000000
E 458 472 105.000000
E 458 477 101.000000
E 458 580 94.000000
E 459 585 100.000000
E 459 620 104.000000
E 460 464 104.000000
E 461 487 110.000000
E 461 610 95.000000
E 462 591 97.000000
E 463 466 105.000000
E 463 483 89.000000
E 463 511 97.000000
E 466 610 96.000000
E 469 485 91.000000
E 471 518 97.000000
E 471 559 105.000000
E 471 591 95.000000
E 473 475 104.000000
E 473 503 97.000000
E 476 618 102.000000
E 477 534 103.000000
E 480 539 97.000000
E 482 542 97.000000
E 482 550 106.000000
E 482 554 94.000000
E 483 570 98.000000
E 485 518 95.000000
E 486 506 100.000000
E 487 492 103.000000
E 487 558 101.000000
E 487 566 105.000000
E 489 515 101.000000
E 489 597 100.000000
E 491 520 110.000000
E 493 612 94.000000
E 493 619 103.000000
E 495 526 96.000000
E 496 536 104.000000
E 496 561 89.000000
E 496 582 102.000000
E 496 610 92.000000
E 497 522 94.000000
E 498 522 102.000000
E 499 522 107.000000
E 499 563 105.000000
E 500 569 103.000000
E 500 573 88.000000
E 500 584 102.000000
E 501 571 96.000000
E 503 612 96.000000
E 504 634 94.000000
E 510 547 109.000000
E 511 531 98.000000
E 514 560 107.000000
E 515 565 98.000000
E 517 608 104.000000
E 518 531 100.000000
E 519 629 101.000000
E 521 613 102.000000
E 522 608 101.000000
E 523 584 101.000000
E 524 559 101.000000
E 524 605 96.000000
E 525 624 100.000000
E 525 636 96.000000
E 526 611 109.000000
E 528 553 104.000000
E 528 574 100.000000
E 530 624 107.000000
E 533 591 97.000000
E 533 595 105.000000
E 534 600 96.000000
E 534 602 94.000000
E 535 547 95.000000
E 535 589 96.000000
E 536 544 95.000000
E 538 601 99.000000
E 541 592 99.000000
E 543 554 99.000000
E 543 564 107.000000
E 546 590 87.000000
E 547 575 98.000000
E 547 636 97.000000
E 550 564 105.000000
E 551 604 97.000000
E 552 600 99.000000
E 553 592 94.000000
E 554 564 103.000000
E 555 568 98.000000
E 556 629 98.000000
E 557 581 101.000000
E 557 600 93.000000
E 557 611 102.000000
E 561 580 99.000000
E 563 565 104.000000
E 567 593 98.000000
E 568 609 105.000000
E 569 589 95.000000
E 569 629 105.000000
E 570 576 99.000000
E 572 605 100.000000
E 575 588 103.000000
E 582 616 93.000000
E 593 611 105.000000
E 600 612 96.000000
E 601 608 97.000000
E 604 633 97.000000
E 606 622 105.000000
E 626 640 99.000000
END

SECTION Terminals
Terminals 160
TP 1 1140.000000
TP 2 416.000000
TP 3 1220.000000
TP 4 1084.000000
TP 5 64.000000
TP 6 1120.000000
TP 7 640.000000
TP 8 504.000000
TP 9 784.000000
TP 10 268.000000
TP 11 1048.000000
TP 12 480.000000
TP 13 1088.000000
TP 14 980.000000
TP 15 400.000000
TP 16 352.000000
TP 17 88.000000
TP 18 616.000000
TP 19 500.000000
TP 20 988.000000
TP 21 548.000000
TP 22 456.000000
TP 23 384.000000
TP 24 4.000000
TP 25 304.000000
TP 26 852.000000
TP 27 96.000000
TP 28 208.000000
TP 29 564.000000
TP 30 136.000000
TP 31 1056.000000
TP 32 920.000000
TP 33 440.000000
TP 34 908.000000
TP 35 1104.000000
TP 36 1036.000000
TP 37 648.000000
TP 38 680.000000
TP 39 80.000000
TP 40 640.000000
TP 41 1016.000000
TP 42 1208.000000
TP 43 228.000000
TP 44 132.000000
TP 45 1148.000000
TP 46 84.000000
TP 47 692.000000
TP 48 376.000000
TP 49 392.000000
TP 50 168.000000
TP 51 484.000000
TP 52 904.000000
TP 53 872.000000
TP 54 76.000000
TP 55 636.000000
TP 56 212.000000
TP 57 1112.000000
TP 58 1228.000000
TP 59 932.000000
TP 60 240.000000
TP 61 236.000000
TP 62 768.000000
TP 63 988.000000
TP 64 876.000000
TP 65 44.000000
TP 66 12.000000
TP 67 1100.000000
TP 68 1164.000000
TP 69 1032.000000
TP 70 424.000000
TP 71 928.000000
TP 72 464.000000
TP 73 736.000000
TP 74 532.000000
TP 75 1012.000000
TP 76 848.000000
TP 77 576.000000
TP 78 980.000000
TP 79 80.000000
TP 80 172.000000
TP 81 792.000000
TP 82 44.000000
TP 83 1032.000000
TP 84 332.000000
TP 85 788.000000
TP 86 1176.000000
TP 87 1184.000000
TP 88 236.000000
TP 89 1092.000000
TP 90 1188.000000
TP 91 148.000000
TP 92 712.000000
TP 93 852.000000
TP 94 656.000000
TP 95 328.000000
TP 96 772.000000
TP 97 428.000000
TP 98 284.000000
TP 99 68.000000
TP 100 716.000000
TP 101 148.000000
TP 102 232.000000
TP 103 876.000000
TP 104 640.000000
TP 105 600.000000
TP 106 828.000000
TP 107 964.000000
TP 108 860.000000
TP 109 948.000000
TP 110 392.000000
TP 111 768.000000
TP 112 1164.000000
TP 113 80.000000
TP 114 568.000000
TP 115 220.000000
TP 116 1092.000000
TP 117 1172.000000
TP 118 560.000000
TP 119 772.000000
TP 120 632.000000
TP 121 608.000000
TP 122 292.000000
TP 123 536.000000
TP 124 772.000000
TP 125 292.000000
TP 126 28.000000
TP 127 908.000000
TP 128 956.000000
TP 129 968.000000
TP 130 820.000000
TP 131 732.000000
TP 132 516.000000
TP 133 944.000000
TP 134 624.000000
TP 135 1088.000000
TP 136 576.000000
TP 137 1108.000000
TP 138 868.000000
TP 139 464.000000
TP 140 1044.000000
TP 141 776.000000
TP 142 860.000000
TP 143 1032.000000
TP 144 572.000000
TP 145 616.000000
TP 146 400.000000
TP 147 736.000000
TP 148 276.000000
TP 149 200.000000
TP 150 136.000000
TP 151 376.000000
TP 152 216.000000
TP 153 156.000000
TP 154 308.000000
TP 155 1024.000000
TP 156 624.000000
TP 157 32.000000
TP 158 360.000000
TP 159 1132.000000
TP 160 308.000000
END

EOF
